c Sudoku solution
p cnf 729 0
143 0
187 0
196 0
228 0
259 0
322 0
371 0
385 0
423 0
439 0
451 0
464 0
476 0
536 0
588 0
482 0
634 0
652 0
512 0
757 0
795 0
497 0
813 0
825 0
886 0
944 0
858 0
955 0
553 0
154 0
356 0
216 0
314 0
399 0
178 0
162 0
333 0
237 0
724 0
926 0
129 0
135 0
111 0
877 0
894 0
917 0
719 0
738 0
998 0
284 0
574 0
675 0
618 0
415 0
448 0
347 0
368 0
979 0
772 0
842 0
831 0
932 0
869 0
273 0
292 0
689 0
693 0
591 0
527 0
621 0
565 0
549 0
667 0
646 0
245 0
261 0
741 0
963 0
766 0
783 0
981 0
